Nodes = {"Hannover", "Frankfurt", "Hamburg", "Norden", "Bremen", "Berlin", "Muenchen", "Ulm", "Nuernberg", "Stuttgart", "Karlsruhe", "Mannheim", "Essen", "Dortmund", "Duesseldorf", "Koeln", "Leipzig"};
Arcs = {<"Hannover","Frankfurt",1,6,1>, <"Hannover","Hamburg",1,1,1>, <"Hannover","Norden",1,8,0>, <"Hannover","Bremen",1,1,1>, <"Hannover","Berlin",1,14,1>, <"Hannover","Muenchen",1,21,0>, <"Hannover","Ulm",1,16,0>, <"Hannover","Nuernberg",1,10,0>, <"Hannover","Stuttgart",1,14,0>, <"Hannover","Karlsruhe",1,13,0>, <"Hannover","Mannheim",1,10,0>, <"Hannover","Essen",1,9,0>, <"Hannover","Dortmund",1,6,1>, <"Hannover","Duesseldorf",1,10,0>, <"Hannover","Koeln",1,10,0>, <"Hannover","Leipzig",1,8,1>, <"Frankfurt","Hannover",1,6,1>, <"Frankfurt","Hamburg",1,14,0>, <"Frankfurt","Norden",1,14,0>, <"Frankfurt","Bremen",1,9,0>, <"Frankfurt","Berlin",1,29,0>, <"Frankfurt","Muenchen",1,12,0>, <"Frankfurt","Ulm",1,5,0>, <"Frankfurt","Nuernberg",1,6,1>, <"Frankfurt","Stuttgart",1,2,0>, <"Frankfurt","Karlsruhe",1,1,0>, <"Frankfurt","Mannheim",1,0,1>, <"Frankfurt","Essen",1,4,0>, <"Frankfurt","Dortmund",1,3,0>, <"Frankfurt","Duesseldorf",1,5,0>, <"Frankfurt","Koeln",1,3,1>, <"Frankfurt","Leipzig",1,15,1>, <"Hamburg","Hannover",1,1,1>, <"Hamburg","Frankfurt",1,14,0>, <"Hamburg","Norden",1,8,0>, <"Hamburg","Bremen",1,2,1>, <"Hamburg","Berlin",1,13,1>, <"Hamburg","Muenchen",1,31,0>, <"Hamburg","Ulm",1,27,0>, <"Hamburg","Nuernberg",1,18,0>, <"Hamburg","Stuttgart",1,24,0>, <"Hamburg","Karlsruhe",1,23,0>, <"Hamburg","Mannheim",1,19,0>, <"Hamburg","Essen",1,14,0>, <"Hamburg","Dortmund",1,11,0>, <"Hamburg","Duesseldorf",1,16,0>, <"Hamburg","Koeln",1,16,0>, <"Hamburg","Leipzig",1,10,0>, <"Norden","Hannover",1,8,0>, <"Norden","Frankfurt",1,14,0>, <"Norden","Hamburg",1,8,0>, <"Norden","Bremen",1,3,1>, <"Norden","Berlin",1,40,0>, <"Norden","Muenchen",1,49,0>, <"Norden","Ulm",1,35,0>, <"Norden","Nuernberg",1,32,0>, <"Norden","Stuttgart",1,27,0>, <"Norden","Karlsruhe",1,23,0>, <"Norden","Mannheim",1,19,0>, <"Norden","Essen",1,5,0>, <"Norden","Dortmund",1,4,1>, <"Norden","Duesseldorf",1,6,0>, <"Norden","Koeln",1,7,0>, <"Norden","Leipzig",1,32,0>, <"Bremen","Hannover",1,1,1>, <"Bremen","Frankfurt",1,9,0>, <"Bremen","Hamburg",1,2,1>, <"Bremen","Norden",1,3,1>, <"Bremen","Berlin",1,22,0>, <"Bremen","Muenchen",1,32,0>, <"Bremen","Ulm",1,23,0>, <"Bremen","Nuernberg",1,18,0>, <"Bremen","Stuttgart",1,19,0>, <"Bremen","Karlsruhe",1,17,0>, <"Bremen","Mannheim",1,13,0>, <"Bremen","Essen",1,6,0>, <"Bremen","Dortmund",1,4,0>, <"Bremen","Duesseldorf",1,8,0>, <"Bremen","Koeln",1,8,0>, <"Bremen","Leipzig",1,16,0>, <"Berlin","Hannover",1,14,1>, <"Berlin","Frankfurt",1,29,0>, <"Berlin","Hamburg",1,13,1>, <"Berlin","Norden",1,40,0>, <"Berlin","Bremen",1,22,0>, <"Berlin","Muenchen",1,23,0>, <"Berlin","Ulm",1,29,0>, <"Berlin","Nuernberg",1,15,0>, <"Berlin","Stuttgart",1,33,0>, <"Berlin","Karlsruhe",1,38,0>, <"Berlin","Mannheim",1,34,0>, <"Berlin","Essen",1,43,0>, <"Berlin","Dortmund",1,37,0>, <"Berlin","Duesseldorf",1,47,0>, <"Berlin","Koeln",1,44,0>, <"Berlin","Leipzig",1,3,1>, <"Muenchen","Hannover",1,21,0>, <"Muenchen","Frankfurt",1,12,0>, <"Muenchen","Hamburg",1,31,0>, <"Muenchen","Norden",1,49,0>, <"Muenchen","Bremen",1,32,0>, <"Muenchen","Berlin",1,23,0>, <"Muenchen","Ulm",1,2,1>, <"Muenchen","Nuernberg",1,2,1>, <"Muenchen","Stuttgart",1,6,0>, <"Muenchen","Karlsruhe",1,11,0>, <"Muenchen","Mannheim",1,11,0>, <"Muenchen","Essen",1,32,0>, <"Muenchen","Dortmund",1,28,0>, <"Muenchen","Duesseldorf",1,32,0>, <"Muenchen","Koeln",1,28,0>, <"Muenchen","Leipzig",1,11,0>, <"Ulm","Hannover",1,16,0>, <"Ulm","Frankfurt",1,5,0>, <"Ulm","Hamburg",1,27,0>, <"Ulm","Norden",1,35,0>, <"Ulm","Bremen",1,23,0>, <"Ulm","Berlin",1,29,0>, <"Ulm","Muenchen",1,2,1>, <"Ulm","Nuernberg",1,2,0>, <"Ulm","Stuttgart",1,1,1>, <"Ulm","Karlsruhe",1,3,0>, <"Ulm","Mannheim",1,3,0>, <"Ulm","Essen",1,18,0>, <"Ulm","Dortmund",1,16,0>, <"Ulm","Duesseldorf",1,18,0>, <"Ulm","Koeln",1,15,0>, <"Ulm","Leipzig",1,14,0>, <"Nuernberg","Hannover",1,10,0>, <"Nuernberg","Frankfurt",1,6,1>, <"Nuernberg","Hamburg",1,18,0>, <"Nuernberg","Norden",1,32,0>, <"Nuernberg","Bremen",1,18,0>, <"Nuernberg","Berlin",1,15,0>, <"Nuernberg","Muenchen",1,2,1>, <"Nuernberg","Ulm",1,2,0>, <"Nuernberg","Stuttgart",1,4,1>, <"Nuernberg","Karlsruhe",1,7,0>, <"Nuernberg","Mannheim",1,7,0>, <"Nuernberg","Essen",1,21,0>, <"Nuernberg","Dortmund",1,17,0>, <"Nuernberg","Duesseldorf",1,22,0>, <"Nuernberg","Koeln",1,19,0>, <"Nuernberg","Leipzig",1,5,1>, <"Stuttgart","Hannover",1,14,0>, <"Stuttgart","Frankfurt",1,2,0>, <"Stuttgart","Hamburg",1,24,0>, <"Stuttgart","Norden",1,27,0>, <"Stuttgart","Bremen",1,19,0>, <"Stuttgart","Berlin",1,33,0>, <"Stuttgart","Muenchen",1,6,0>, <"Stuttgart","Ulm",1,1,1>, <"Stuttgart","Nuernberg",1,4,1>, <"Stuttgart","Karlsruhe",1,1,1>, <"Stuttgart","Mannheim",1,1,0>, <"Stuttgart","Essen",1,12,0>, <"Stuttgart","Dortmund",1,10,0>, <"Stuttgart","Duesseldorf",1,12,0>, <"Stuttgart","Koeln",1,9,0>, <"Stuttgart","Leipzig",1,17,0>, <"Karlsruhe","Hannover",1,13,0>, <"Karlsruhe","Frankfurt",1,1,0>, <"Karlsruhe","Hamburg",1,23,0>, <"Karlsruhe","Norden",1,23,0>, <"Karlsruhe","Bremen",1,17,0>, <"Karlsruhe","Berlin",1,38,0>, <"Karlsruhe","Muenchen",1,11,0>, <"Karlsruhe","Ulm",1,3,0>, <"Karlsruhe","Nuernberg",1,7,0>, <"Karlsruhe","Stuttgart",1,1,1>, <"Karlsruhe","Mannheim",1,0,1>, <"Karlsruhe","Essen",1,8,0>, <"Karlsruhe","Dortmund",1,7,0>, <"Karlsruhe","Duesseldorf",1,8,0>, <"Karlsruhe","Koeln",1,6,0>, <"Karlsruhe","Leipzig",1,21,0>, <"Mannheim","Hannover",1,10,0>, <"Mannheim","Frankfurt",1,0,1>, <"Mannheim","Hamburg",1,19,0>, <"Mannheim","Norden",1,19,0>, <"Mannheim","Bremen",1,13,0>, <"Mannheim","Berlin",1,34,0>, <"Mannheim","Muenchen",1,11,0>, <"Mannheim","Ulm",1,3,0>, <"Mannheim","Nuernberg",1,7,0>, <"Mannheim","Stuttgart",1,1,0>, <"Mannheim","Karlsruhe",1,0,1>, <"Mannheim","Essen",1,6,0>, <"Mannheim","Dortmund",1,5,0>, <"Mannheim","Duesseldorf",1,6,0>, <"Mannheim","Koeln",1,4,0>, <"Mannheim","Leipzig",1,19,0>, <"Essen","Hannover",1,9,0>, <"Essen","Frankfurt",1,4,0>, <"Essen","Hamburg",1,14,0>, <"Essen","Norden",1,5,0>, <"Essen","Bremen",1,6,0>, <"Essen","Berlin",1,43,0>, <"Essen","Muenchen",1,32,0>, <"Essen","Ulm",1,18,0>, <"Essen","Nuernberg",1,21,0>, <"Essen","Stuttgart",1,12,0>, <"Essen","Karlsruhe",1,8,0>, <"Essen","Mannheim",1,6,0>, <"Essen","Dortmund",1,0,1>, <"Essen","Duesseldorf",1,0,1>, <"Essen","Koeln",1,0,0>, <"Essen","Leipzig",1,29,0>, <"Dortmund","Hannover",1,6,1>, <"Dortmund","Frankfurt",1,3,0>, <"Dortmund","Hamburg",1,11,0>, <"Dortmund","Norden",1,4,1>, <"Dortmund","Bremen",1,4,0>, <"Dortmund","Berlin",1,37,0>, <"Dortmund","Muenchen",1,28,0>, <"Dortmund","Ulm",1,16,0>, <"Dortmund","Nuernberg",1,17,0>, <"Dortmund","Stuttgart",1,10,0>, <"Dortmund","Karlsruhe",1,7,0>, <"Dortmund","Mannheim",1,5,0>, <"Dortmund","Essen",1,0,1>, <"Dortmund","Duesseldorf",1,1,0>, <"Dortmund","Koeln",1,1,1>, <"Dortmund","Leipzig",1,24,0>, <"Duesseldorf","Hannover",1,10,0>, <"Duesseldorf","Frankfurt",1,5,0>, <"Duesseldorf","Hamburg",1,16,0>, <"Duesseldorf","Norden",1,6,0>, <"Duesseldorf","Bremen",1,8,0>, <"Duesseldorf","Berlin",1,47,0>, <"Duesseldorf","Muenchen",1,32,0>, <"Duesseldorf","Ulm",1,18,0>, <"Duesseldorf","Nuernberg",1,22,0>, <"Duesseldorf","Stuttgart",1,12,0>, <"Duesseldorf","Karlsruhe",1,8,0>, <"Duesseldorf","Mannheim",1,6,0>, <"Duesseldorf","Essen",1,0,1>, <"Duesseldorf","Dortmund",1,1,0>, <"Duesseldorf","Koeln",1,0,1>, <"Duesseldorf","Leipzig",1,31,0>, <"Koeln","Hannover",1,10,0>, <"Koeln","Frankfurt",1,3,1>, <"Koeln","Hamburg",1,16,0>, <"Koeln","Norden",1,7,0>, <"Koeln","Bremen",1,8,0>, <"Koeln","Berlin",1,44,0>, <"Koeln","Muenchen",1,28,0>, <"Koeln","Ulm",1,15,0>, <"Koeln","Nuernberg",1,19,0>, <"Koeln","Stuttgart",1,9,0>, <"Koeln","Karlsruhe",1,6,0>, <"Koeln","Mannheim",1,4,0>, <"Koeln","Essen",1,0,0>, <"Koeln","Dortmund",1,1,1>, <"Koeln","Duesseldorf",1,0,1>, <"Koeln","Leipzig",1,29,0>, <"Leipzig","Hannover",1,8,1>, <"Leipzig","Frankfurt",1,15,1>, <"Leipzig","Hamburg",1,10,0>, <"Leipzig","Norden",1,32,0>, <"Leipzig","Bremen",1,16,0>, <"Leipzig","Berlin",1,3,1>, <"Leipzig","Muenchen",1,11,0>, <"Leipzig","Ulm",1,14,0>, <"Leipzig","Nuernberg",1,5,1>, <"Leipzig","Stuttgart",1,17,0>, <"Leipzig","Karlsruhe",1,21,0>, <"Leipzig","Mannheim",1,19,0>, <"Leipzig","Essen",1,29,0>, <"Leipzig","Dortmund",1,24,0>, <"Leipzig","Duesseldorf",1,31,0>, <"Leipzig","Koeln",1,29,0>};
Demands = {<"Hannover","Frankfurt",10>, <"Hannover","Hamburg",20>, <"Hannover","Norden",30>, <"Hannover","Bremen",40>, <"Hannover","Berlin",50>, <"Hannover","Muenchen",60>, <"Hannover","Ulm",70>, <"Hannover","Nuernberg",80>, <"Hannover","Stuttgart",90>, <"Hannover","Karlsruhe",100>, <"Hannover","Mannheim",110>, <"Hannover","Essen",120>, <"Hannover","Dortmund",130>, <"Hannover","Duesseldorf",140>, <"Hannover","Koeln",150>, <"Hannover","Leipzig",160>, <"Frankfurt","Hannover",10>, <"Frankfurt","Hamburg",10>, <"Frankfurt","Norden",20>, <"Frankfurt","Bremen",30>, <"Frankfurt","Berlin",40>, <"Frankfurt","Muenchen",50>, <"Frankfurt","Ulm",60>, <"Frankfurt","Nuernberg",70>, <"Frankfurt","Stuttgart",80>, <"Frankfurt","Karlsruhe",90>, <"Frankfurt","Mannheim",100>, <"Frankfurt","Essen",110>, <"Frankfurt","Dortmund",120>, <"Frankfurt","Duesseldorf",130>, <"Frankfurt","Koeln",140>, <"Frankfurt","Leipzig",150>, <"Hamburg","Hannover",20>, <"Hamburg","Frankfurt",10>, <"Hamburg","Norden",10>, <"Hamburg","Bremen",20>, <"Hamburg","Berlin",30>, <"Hamburg","Muenchen",40>, <"Hamburg","Ulm",50>, <"Hamburg","Nuernberg",60>, <"Hamburg","Stuttgart",70>, <"Hamburg","Karlsruhe",80>, <"Hamburg","Mannheim",90>, <"Hamburg","Essen",100>, <"Hamburg","Dortmund",110>, <"Hamburg","Duesseldorf",120>, <"Hamburg","Koeln",130>, <"Hamburg","Leipzig",140>, <"Norden","Hannover",30>, <"Norden","Frankfurt",20>, <"Norden","Hamburg",10>, <"Norden","Bremen",10>, <"Norden","Berlin",20>, <"Norden","Muenchen",30>, <"Norden","Ulm",40>, <"Norden","Nuernberg",50>, <"Norden","Stuttgart",60>, <"Norden","Karlsruhe",70>, <"Norden","Mannheim",80>, <"Norden","Essen",90>, <"Norden","Dortmund",100>, <"Norden","Duesseldorf",110>, <"Norden","Koeln",120>, <"Norden","Leipzig",130>, <"Bremen","Hannover",40>, <"Bremen","Frankfurt",30>, <"Bremen","Hamburg",20>, <"Bremen","Norden",10>, <"Bremen","Berlin",10>, <"Bremen","Muenchen",20>, <"Bremen","Ulm",30>, <"Bremen","Nuernberg",40>, <"Bremen","Stuttgart",50>, <"Bremen","Karlsruhe",60>, <"Bremen","Mannheim",70>, <"Bremen","Essen",80>, <"Bremen","Dortmund",90>, <"Bremen","Duesseldorf",100>, <"Bremen","Koeln",110>, <"Bremen","Leipzig",120>, <"Berlin","Hannover",50>, <"Berlin","Frankfurt",40>, <"Berlin","Hamburg",30>, <"Berlin","Norden",20>, <"Berlin","Bremen",10>, <"Berlin","Muenchen",10>, <"Berlin","Ulm",20>, <"Berlin","Nuernberg",30>, <"Berlin","Stuttgart",40>, <"Berlin","Karlsruhe",50>, <"Berlin","Mannheim",60>, <"Berlin","Essen",70>, <"Berlin","Dortmund",80>, <"Berlin","Duesseldorf",90>, <"Berlin","Koeln",100>, <"Berlin","Leipzig",110>, <"Muenchen","Hannover",60>, <"Muenchen","Frankfurt",50>, <"Muenchen","Hamburg",40>, <"Muenchen","Norden",30>, <"Muenchen","Bremen",20>, <"Muenchen","Berlin",10>, <"Muenchen","Ulm",10>, <"Muenchen","Nuernberg",20>, <"Muenchen","Stuttgart",30>, <"Muenchen","Karlsruhe",40>, <"Muenchen","Mannheim",50>, <"Muenchen","Essen",60>, <"Muenchen","Dortmund",70>, <"Muenchen","Duesseldorf",80>, <"Muenchen","Koeln",90>, <"Muenchen","Leipzig",100>, <"Ulm","Hannover",70>, <"Ulm","Frankfurt",60>, <"Ulm","Hamburg",50>, <"Ulm","Norden",40>, <"Ulm","Bremen",30>, <"Ulm","Berlin",20>, <"Ulm","Muenchen",10>, <"Ulm","Nuernberg",10>, <"Ulm","Stuttgart",20>, <"Ulm","Karlsruhe",30>, <"Ulm","Mannheim",40>, <"Ulm","Essen",50>, <"Ulm","Dortmund",60>, <"Ulm","Duesseldorf",70>, <"Ulm","Koeln",80>, <"Ulm","Leipzig",90>, <"Nuernberg","Hannover",80>, <"Nuernberg","Frankfurt",70>, <"Nuernberg","Hamburg",60>, <"Nuernberg","Norden",50>, <"Nuernberg","Bremen",40>, <"Nuernberg","Berlin",30>, <"Nuernberg","Muenchen",20>, <"Nuernberg","Ulm",10>, <"Nuernberg","Stuttgart",10>, <"Nuernberg","Karlsruhe",20>, <"Nuernberg","Mannheim",30>, <"Nuernberg","Essen",40>, <"Nuernberg","Dortmund",50>, <"Nuernberg","Duesseldorf",60>, <"Nuernberg","Koeln",70>, <"Nuernberg","Leipzig",80>, <"Stuttgart","Hannover",90>, <"Stuttgart","Frankfurt",80>, <"Stuttgart","Hamburg",70>, <"Stuttgart","Norden",60>, <"Stuttgart","Bremen",50>, <"Stuttgart","Berlin",40>, <"Stuttgart","Muenchen",30>, <"Stuttgart","Ulm",20>, <"Stuttgart","Nuernberg",10>, <"Stuttgart","Karlsruhe",10>, <"Stuttgart","Mannheim",20>, <"Stuttgart","Essen",30>, <"Stuttgart","Dortmund",40>, <"Stuttgart","Duesseldorf",50>, <"Stuttgart","Koeln",60>, <"Stuttgart","Leipzig",70>, <"Karlsruhe","Hannover",100>, <"Karlsruhe","Frankfurt",90>, <"Karlsruhe","Hamburg",80>, <"Karlsruhe","Norden",70>, <"Karlsruhe","Bremen",60>, <"Karlsruhe","Berlin",50>, <"Karlsruhe","Muenchen",40>, <"Karlsruhe","Ulm",30>, <"Karlsruhe","Nuernberg",20>, <"Karlsruhe","Stuttgart",10>, <"Karlsruhe","Mannheim",10>, <"Karlsruhe","Essen",20>, <"Karlsruhe","Dortmund",30>, <"Karlsruhe","Duesseldorf",40>, <"Karlsruhe","Koeln",50>, <"Karlsruhe","Leipzig",60>, <"Mannheim","Hannover",110>, <"Mannheim","Frankfurt",100>, <"Mannheim","Hamburg",90>, <"Mannheim","Norden",80>, <"Mannheim","Bremen",70>, <"Mannheim","Berlin",60>, <"Mannheim","Muenchen",50>, <"Mannheim","Ulm",40>, <"Mannheim","Nuernberg",30>, <"Mannheim","Stuttgart",20>, <"Mannheim","Karlsruhe",10>, <"Mannheim","Essen",10>, <"Mannheim","Dortmund",20>, <"Mannheim","Duesseldorf",30>, <"Mannheim","Koeln",40>, <"Mannheim","Leipzig",50>, <"Essen","Hannover",120>, <"Essen","Frankfurt",110>, <"Essen","Hamburg",100>, <"Essen","Norden",90>, <"Essen","Bremen",80>, <"Essen","Berlin",70>, <"Essen","Muenchen",60>, <"Essen","Ulm",50>, <"Essen","Nuernberg",40>, <"Essen","Stuttgart",30>, <"Essen","Karlsruhe",20>, <"Essen","Mannheim",10>, <"Essen","Dortmund",10>, <"Essen","Duesseldorf",20>, <"Essen","Koeln",30>, <"Essen","Leipzig",40>, <"Dortmund","Hannover",130>, <"Dortmund","Frankfurt",120>, <"Dortmund","Hamburg",110>, <"Dortmund","Norden",100>, <"Dortmund","Bremen",90>, <"Dortmund","Berlin",80>, <"Dortmund","Muenchen",70>, <"Dortmund","Ulm",60>, <"Dortmund","Nuernberg",50>, <"Dortmund","Stuttgart",40>, <"Dortmund","Karlsruhe",30>, <"Dortmund","Mannheim",20>, <"Dortmund","Essen",10>, <"Dortmund","Duesseldorf",10>, <"Dortmund","Koeln",20>, <"Dortmund","Leipzig",30>, <"Duesseldorf","Hannover",140>, <"Duesseldorf","Frankfurt",130>, <"Duesseldorf","Hamburg",120>, <"Duesseldorf","Norden",110>, <"Duesseldorf","Bremen",100>, <"Duesseldorf","Berlin",90>, <"Duesseldorf","Muenchen",80>, <"Duesseldorf","Ulm",70>, <"Duesseldorf","Nuernberg",60>, <"Duesseldorf","Stuttgart",50>, <"Duesseldorf","Karlsruhe",40>, <"Duesseldorf","Mannheim",30>, <"Duesseldorf","Essen",20>, <"Duesseldorf","Dortmund",10>, <"Duesseldorf","Koeln",10>, <"Duesseldorf","Leipzig",20>, <"Koeln","Hannover",150>, <"Koeln","Frankfurt",140>, <"Koeln","Hamburg",130>, <"Koeln","Norden",120>, <"Koeln","Bremen",110>, <"Koeln","Berlin",100>, <"Koeln","Muenchen",90>, <"Koeln","Ulm",80>, <"Koeln","Nuernberg",70>, <"Koeln","Stuttgart",60>, <"Koeln","Karlsruhe",50>, <"Koeln","Mannheim",40>, <"Koeln","Essen",30>, <"Koeln","Dortmund",20>, <"Koeln","Duesseldorf",10>, <"Koeln","Leipzig",10>, <"Leipzig","Hannover",160>, <"Leipzig","Frankfurt",150>, <"Leipzig","Hamburg",140>, <"Leipzig","Norden",130>, <"Leipzig","Bremen",120>, <"Leipzig","Berlin",110>, <"Leipzig","Muenchen",100>, <"Leipzig","Ulm",90>, <"Leipzig","Nuernberg",80>, <"Leipzig","Stuttgart",70>, <"Leipzig","Karlsruhe",60>, <"Leipzig","Mannheim",50>, <"Leipzig","Essen",40>, <"Leipzig","Dortmund",30>, <"Leipzig","Duesseldorf",20>, <"Leipzig","Koeln",10>};
